networks/zoo_42_336/zoo_42_336-lower.sol
<?xml version = "1.0" encoding="UTF-8" standalone="yes"?>
<CPLEXSolution version="1.2">
 <header
   problemName="networks/zoo_42_336/zoo_42_336-lower.lp"
   solutionName="incumbent"
   solutionIndex="-1"
   objectiveValue="21"
   solutionTypeValue="3"
   solutionTypeString="primal"
   solutionStatusValue="101"
   solutionStatusString="integer optimal solution"
   solutionMethodString="mip"
   primalFeasible="1"
   dualFeasible="1"
   MIPNodes="0"
   MIPIterations="0"
   writeLevel="3"/>
 <quality
   epInt="1.0000000000000001e-05"
   epRHS="9.9999999999999995e-07"
   maxIntInfeas="0"
   maxPrimalInfeas="0"
   maxX="1"
   maxSlack="1"/>
 <variables>
  <variable name="Y(1,2)" index="1" value="1"/>
  <variable name="Y(2,3)" index="44" value="1"/>
  <variable name="Y(3,4)" index="87" value="1"/>
  <variable name="Y(4,7)" index="132" value="1"/>
  <variable name="Y(5,8)" index="175" value="1"/>
  <variable name="Y(6,9)" index="218" value="1"/>
  <variable name="Y(7,11)" index="262" value="1"/>
  <variable name="Y(8,12)" index="305" value="1"/>
  <variable name="Y(9,14)" index="349" value="1"/>
  <variable name="Y(10,15)" index="392" value="1"/>
  <variable name="Y(11,16)" index="435" value="1"/>
  <variable name="Y(12,17)" index="478" value="1"/>
  <variable name="Y(13,20)" index="523" value="1"/>
  <variable name="Y(14,21)" index="566" value="1"/>
  <variable name="Y(15,1)" index="588" value="1"/>
  <variable name="Y(18,5)" index="718" value="1"/>
  <variable name="Y(19,6)" index="761" value="1"/>
  <variable name="Y(23,10)" index="933" value="1"/>
  <variable name="Y(26,13)" index="1062" value="1"/>
  <variable name="Y(31,18)" index="1277" value="1"/>
  <variable name="Y(32,19)" index="1320" value="1"/>
  <variable name="X(1,17,6)" index="14117" value="1"/>
  <variable name="X(1,21,1)" index="14448" value="1"/>
  <variable name="X(1,22,15)" index="14798" value="1"/>
  <variable name="X(2,3,15)" index="15134" value="1"/>
  <variable name="X(2,4,3)" index="15458" value="1"/>
  <variable name="X(2,5,5)" index="15796" value="1"/>
  <variable name="X(2,7,4)" index="16131" value="1"/>
  <variable name="X(2,23,1)" index="16464" value="1"/>
  <variable name="X(3,2,1)" index="16800" value="1"/>
  <variable name="X(3,13,22)" index="17157" value="1"/>
  <variable name="X(3,21,15)" index="17486" value="1"/>
  <variable name="X(3,24,2)" index="17809" value="1"/>
  <variable name="X(4,2,53)" index="18196" value="1"/>
  <variable name="X(4,5,56)" index="18535" value="1"/>
  <variable name="X(4,25,3)" index="18818" value="1"/>
  <variable name="X(5,2,72)" index="19223" value="1"/>
  <variable name="X(5,4,75)" index="19562" value="1"/>
  <variable name="X(5,8,5)" index="19828" value="1"/>
  <variable name="X(5,26,18)" index="20177" value="1"/>
  <variable name="X(6,8,90)" index="20585" value="1"/>
  <variable name="X(6,27,19)" index="20850" value="1"/>
  <variable name="X(7,2,106)" index="21273" value="1"/>
  <variable name="X(7,8,111)" index="21614" value="1"/>
  <variable name="X(7,28,4)" index="21843" value="1"/>
  <variable name="X(8,5,90)" index="22265" value="1"/>
  <variable name="X(8,6,19)" index="22530" value="1"/>
  <variable name="X(8,7,94)" index="22941" value="1"/>
  <variable name="X(8,29,5)" index="23188" value="1"/>
  <variable name="X(9,10,23)" index="23542" value="1"/>
  <variable name="X(9,15,144)" index="23999" value="1"/>
  <variable name="X(9,30,6)" index="24197" value="1"/>
  <variable name="X(10,9,158)" index="24685" value="1"/>
  <variable name="X(10,11,149)" index="25012" value="1"/>
  <variable name="X(10,31,23)" index="25222" value="1"/>
  <variable name="X(11,10,185)" index="25720" value="1"/>
  <variable name="X(11,16,171)" index="26042" value="1"/>
  <variable name="X(11,18,31)" index="26238" value="1"/>
  <variable name="X(11,19,157)" index="26700" value="1"/>
  <variable name="X(11,32,7)" index="26886" value="1"/>
  <variable name="X(12,13,144)" index="27359" value="1"/>
  <variable name="X(12,14,9)" index="27560" value="1"/>
  <variable name="X(12,15,6)" index="27893" value="1"/>
  <variable name="X(12,20,154)" index="28377" value="1"/>
  <variable name="X(12,33,8)" index="28567" value="1"/>
  <variable name="X(13,3,144)" index="29039" value="1"/>
  <variable name="X(13,12,22)" index="29253" value="1"/>
  <variable name="X(13,34,26)" index="29593" value="1"/>
  <variable name="X(14,12,232)" index="30135" value="1"/>
  <variable name="X(14,15,239)" index="30478" value="1"/>
  <variable name="X(14,35,9)" index="30584" value="1"/>
  <variable name="X(15,9,6)" index="30917" value="1"/>
  <variable name="X(15,12,144)" index="31391" value="1"/>
  <variable name="X(15,14,151)" index="31734" value="1"/>
  <variable name="X(15,16,11)" index="31930" value="1"/>
  <variable name="X(15,36,10)" index="32265" value="1"/>
  <variable name="X(16,11,240)" index="32831" value="1"/>
  <variable name="X(16,15,188)" index="33115" value="1"/>
  <variable name="X(16,37,11)" index="33274" value="1"/>
  <variable name="X(17,1,157)" index="33756" value="1"/>
  <variable name="X(17,20,6)" index="33941" value="1"/>
  <variable name="X(17,38,12)" index="34283" value="1"/>
  <variable name="X(18,11,290)" index="34897" value="1"/>
  <variable name="X(18,39,31)" index="34974" value="1"/>
  <variable name="X(19,11,7)" index="35286" value="1"/>
  <variable name="X(19,20,157)" index="35772" value="1"/>
  <variable name="X(19,40,32)" index="35983" value="1"/>
  <variable name="X(20,12,6)" index="36293" value="1"/>
  <variable name="X(20,17,154)" index="36777" value="1"/>
  <variable name="X(20,19,7)" index="36966" value="1"/>
  <variable name="X(20,21,156)" index="37451" value="1"/>
  <variable name="X(20,41,13)" index="37644" value="1"/>
  <variable name="X(21,1,15)" index="37982" value="1"/>
  <variable name="X(21,3,1)" index="38304" value="1"/>
  <variable name="X(21,20,24)" index="38663" value="1"/>
  <variable name="X(21,42,14)" index="38989" value="1"/>
 </variables>
</CPLEXSolution>
